words_hard_train/5601.qaiger
aag 152 16 0 1 136
2
4
8
16
18
40
58
82
100
130
138
170
178
212
220
248
305
6 2 4
10 6 9
12 7 8
14 11 13
20 16 18
22 17 19
24 21 23
26 14 25
28 15 24
30 27 29
32 31 8
34 2 16
36 34 30
38 33 37
42 39 40
44 38 41
46 37 29
48 8 4
50 49 7
52 51 41
54 50 40
56 53 55
60 23 58
62 22 59
64 61 63
66 56 65
68 57 64
70 67 69
72 46 71
74 47 70
76 73 75
78 45 77
80 43 79
84 80 83
86 81 82
88 75 69
90 40 4
92 50 91
94 93 82
96 92 83
98 95 97
102 63 100
104 62 101
106 103 105
108 99 107
110 98 106
112 109 111
114 88 113
116 89 112
118 115 117
120 87 118
122 85 121
124 117 111
126 82 4
128 92 127
132 129 130
134 128 131
136 133 135
140 105 138
142 104 139
144 141 143
146 137 145
148 136 144
150 147 149
152 124 151
154 125 150
156 153 155
158 157 130
160 123 159
162 156 131
164 161 163
166 155 149
168 135 4
172 169 170
174 168 171
176 173 175
180 143 178
182 142 179
184 181 183
186 176 185
188 177 184
190 187 189
192 166 191
194 167 190
196 193 195
198 196 171
200 164 199
202 197 170
204 201 203
206 195 189
208 134 171
210 209 4
214 211 212
216 210 213
218 215 217
222 183 220
224 182 221
226 223 225
228 218 227
230 219 226
232 229 231
234 206 233
236 207 232
238 235 237
240 238 213
242 205 241
244 239 212
246 243 245
250 224 249
252 225 248
254 251 253
256 208 4
258 256 213
260 254 258
262 255 259
264 261 263
266 237 231
268 264 267
270 265 266
272 269 271
274 273 4
276 247 275
278 3 17
280 279 30
282 156 280
284 76 196
286 284 118
288 282 286
290 238 35
292 288 290
294 292 273
296 276 295
298 277 294
300 297 299
302 272 5
304 300 303
i0 1 x1[0]
i1 1 x1[7]
i2 1 x1[1]
i3 2 y2[0]
i4 2 y2[1]
i5 1 x1[2]
i6 2 y2[2]
i7 1 x1[3]
i8 2 y2[3]
i9 1 x1[4]
i10 2 y2[4]
i11 1 x1[5]
i12 2 y2[5]
i13 1 x1[6]
i14 2 y2[6]
i15 2 y2[7]
o0 bv[0]
c
simplified
  <=
    add
      subtract
        abs
          1 x1
        2 y2
      1
    1 x1
