words_hard_train/5601.qaiger.qdimacs
p cnf 152 409
a 1 2 65 4 41 106 20 85 0
e 3 5 6 7 8 9 10 11 12 13 14 15 16 17 18 19 21 22 23 24 25 26 27 28 29 30 31 32 33 34 35 36 37 38 39 40 42 43 44 45 46 47 48 49 50 51 52 53 54 55 56 57 58 59 60 61 62 63 64 66 67 68 69 70 71 72 73 74 75 76 77 78 79 80 81 82 83 84 86 87 88 89 90 91 92 93 94 95 96 97 98 99 100 101 102 103 104 105 107 108 109 110 111 112 113 114 115 116 117 118 119 120 121 122 123 124 125 126 127 128 129 130 131 132 133 134 135 136 137 138 139 140 141 142 143 144 145 146 147 148 149 150 151 152 0
-1 -2 3 0
1 -3 0
2 -3 0
-3 4 5 0
3 -5 0
-4 -5 0
3 -4 6 0
-3 -6 0
4 -6 0
5 6 7 0
-5 -7 0
-6 -7 0
-8 -9 10 0
8 -10 0
9 -10 0
8 9 11 0
-8 -11 0
-9 -11 0
10 11 12 0
-10 -12 0
-11 -12 0
-7 12 13 0
7 -13 0
-12 -13 0
7 -12 14 0
-7 -14 0
12 -14 0
13 14 15 0
-13 -15 0
-14 -15 0
15 -4 16 0
-15 -16 0
4 -16 0
-1 -8 17 0
1 -17 0
8 -17 0
-17 -15 18 0
17 -18 0
15 -18 0
16 18 19 0
-16 -19 0
-18 -19 0
19 -20 21 0
-19 -21 0
20 -21 0
-19 20 22 0
19 -22 0
-20 -22 0
18 14 23 0
-18 -23 0
-14 -23 0
-4 -2 24 0
4 -24 0
2 -24 0
24 3 25 0
-24 -25 0
-3 -25 0
25 20 26 0
-25 -26 0
-20 -26 0
-25 -20 27 0
25 -27 0
20 -27 0
26 27 28 0
-26 -28 0
-27 -28 0
11 -29 30 0
-11 -30 0
29 -30 0
-11 29 31 0
11 -31 0
-29 -31 0
30 31 32 0
-30 -32 0
-31 -32 0
-28 32 33 0
28 -33 0
-32 -33 0
28 -32 34 0
-28 -34 0
32 -34 0
33 34 35 0
-33 -35 0
-34 -35 0
-23 35 36 0
23 -36 0
-35 -36 0
23 -35 37 0
-23 -37 0
35 -37 0
36 37 38 0
-36 -38 0
-37 -38 0
22 38 39 0
-22 -39 0
-38 -39 0
21 39 40 0
-21 -40 0
-39 -40 0
-40 41 42 0
40 -42 0
-41 -42 0
40 -41 43 0
-40 -43 0
41 -43 0
37 34 44 0
-37 -44 0
-34 -44 0
-20 -2 45 0
20 -45 0
2 -45 0
-25 45 46 0
25 -46 0
-45 -46 0
46 -41 47 0
-46 -47 0
41 -47 0
-46 41 48 0
46 -48 0
-41 -48 0
47 48 49 0
-47 -49 0
-48 -49 0
31 -50 51 0
-31 -51 0
50 -51 0
-31 50 52 0
31 -52 0
-50 -52 0
51 52 53 0
-51 -53 0
-52 -53 0
49 53 54 0
-49 -54 0
-53 -54 0
-49 -53 55 0
49 -55 0
53 -55 0
54 55 56 0
-54 -56 0
-55 -56 0
-44 56 57 0
44 -57 0
-56 -57 0
44 -56 58 0
-44 -58 0
56 -58 0
57 58 59 0
-57 -59 0
-58 -59 0
43 -59 60 0
-43 -60 0
59 -60 0
42 60 61 0
-42 -61 0
-60 -61 0
58 55 62 0
-58 -62 0
-55 -62 0
-41 -2 63 0
41 -63 0
2 -63 0
-46 63 64 0
46 -64 0
-63 -64 0
64 -65 66 0
-64 -66 0
65 -66 0
-64 65 67 0
64 -67 0
-65 -67 0
66 67 68 0
-66 -68 0
-67 -68 0
52 -69 70 0
-52 -70 0
69 -70 0
-52 69 71 0
52 -71 0
-69 -71 0
70 71 72 0
-70 -72 0
-71 -72 0
68 72 73 0
-68 -73 0
-72 -73 0
-68 -72 74 0
68 -74 0
72 -74 0
73 74 75 0
-73 -75 0
-74 -75 0
-62 75 76 0
62 -76 0
-75 -76 0
62 -75 77 0
-62 -77 0
75 -77 0
76 77 78 0
-76 -78 0
-77 -78 0
78 -65 79 0
-78 -79 0
65 -79 0
61 79 80 0
-61 -80 0
-79 -80 0
-78 65 81 0
78 -81 0
-65 -81 0
80 81 82 0
-80 -82 0
-81 -82 0
77 74 83 0
-77 -83 0
-74 -83 0
67 -2 84 0
-67 -84 0
2 -84 0
84 -85 86 0
-84 -86 0
85 -86 0
-84 85 87 0
84 -87 0
-85 -87 0
86 87 88 0
-86 -88 0
-87 -88 0
71 -89 90 0
-71 -90 0
89 -90 0
-71 89 91 0
71 -91 0
-89 -91 0
90 91 92 0
-90 -92 0
-91 -92 0
-88 92 93 0
88 -93 0
-92 -93 0
88 -92 94 0
-88 -94 0
92 -94 0
93 94 95 0
-93 -95 0
-94 -95 0
-83 95 96 0
83 -96 0
-95 -96 0
83 -95 97 0
-83 -97 0
95 -97 0
96 97 98 0
-96 -98 0
-97 -98 0
-98 85 99 0
98 -99 0
-85 -99 0
-82 99 100 0
82 -100 0
-99 -100 0
98 -85 101 0
-98 -101 0
85 -101 0
100 101 102 0
-100 -102 0
-101 -102 0
97 94 103 0
-97 -103 0
-94 -103 0
-67 85 104 0
67 -104 0
-85 -104 0
104 -2 105 0
-104 -105 0
2 -105 0
105 -106 107 0
-105 -107 0
106 -107 0
-105 106 108 0
105 -108 0
-106 -108 0
107 108 109 0
-107 -109 0
-108 -109 0
91 -110 111 0
-91 -111 0
110 -111 0
-91 110 112 0
91 -112 0
-110 -112 0
111 112 113 0
-111 -113 0
-112 -113 0
-109 113 114 0
109 -114 0
-113 -114 0
109 -113 115 0
-109 -115 0
113 -115 0
114 115 116 0
-114 -116 0
-115 -116 0
-103 116 117 0
103 -117 0
-116 -117 0
103 -116 118 0
-103 -118 0
116 -118 0
117 118 119 0
-117 -119 0
-118 -119 0
-119 106 120 0
119 -120 0
-106 -120 0
102 120 121 0
-102 -121 0
-120 -121 0
119 -106 122 0
-119 -122 0
106 -122 0
121 122 123 0
-121 -123 0
-122 -123 0
-112 124 125 0
112 -125 0
-124 -125 0
112 -124 126 0
-112 -126 0
124 -126 0
125 126 127 0
-125 -127 0
-126 -127 0
-104 -2 128 0
104 -128 0
2 -128 0
-128 106 129 0
128 -129 0
-106 -129 0
-127 -129 130 0
127 -130 0
129 -130 0
127 129 131 0
-127 -131 0
-129 -131 0
130 131 132 0
-130 -132 0
-131 -132 0
118 115 133 0
-118 -133 0
-115 -133 0
-132 133 134 0
132 -134 0
-133 -134 0
132 -133 135 0
-132 -135 0
133 -135 0
134 135 136 0
-134 -136 0
-135 -136 0
136 -2 137 0
-136 -137 0
2 -137 0
123 137 138 0
-123 -138 0
-137 -138 0
1 8 139 0
-1 -139 0
-8 -139 0
139 -15 140 0
-139 -140 0
15 -140 0
-78 -140 141 0
78 -141 0
140 -141 0
-38 -98 142 0
38 -142 0
98 -142 0
-142 -59 143 0
142 -143 0
59 -143 0
-141 -143 144 0
141 -144 0
143 -144 0
-119 17 145 0
119 -145 0
-17 -145 0
-144 -145 146 0
144 -146 0
145 -146 0
-146 136 147 0
146 -147 0
-136 -147 0
-138 147 148 0
138 -148 0
-147 -148 0
138 -147 149 0
-138 -149 0
147 -149 0
148 149 150 0
-148 -150 0
-149 -150 0
-136 2 151 0
136 -151 0
-2 -151 0
-150 151 152 0
150 -152 0
-151 -152 0
-152 0
